*SENSE:Maximize
NAME          MODEL
ROWS
 N  OBJ
 L  C0000000
 L  C0000001
 L  C0000002
 L  C0000003
 L  C0000004
 L  C0000005
 L  C0000006
 L  C0000007
 L  C0000008
 L  C0000009
 L  C0000010
 L  C0000011
 L  C0000012
 L  C0000013
 L  C0000014
 L  C0000015
 L  C0000016
 L  C0000017
 L  C0000018
 L  C0000019
COLUMNS
    MARK      'MARKER'                 'INTORG'
    X0000000  C0000000   1.000000000000e+00
    X0000000  C0000002   1.000000000000e+00
    X0000000  C0000014   1.000000000000e+00
    X0000000  OBJ        1.849417764957e-01
    MARK      'MARKER'                 'INTEND'
    MARK      'MARKER'                 'INTORG'
    X0000001  C0000001   1.000000000000e+00
    X0000001  C0000002   1.000000000000e+00
    X0000001  C0000014   1.000000000000e+00
    X0000001  OBJ        1.643926902184e-01
    MARK      'MARKER'                 'INTEND'
    MARK      'MARKER'                 'INTORG'
    X0000002  C0000000   1.000000000000e+00
    X0000002  C0000003   1.000000000000e+00
    X0000002  C0000014   1.001000000000e+03
    X0000002  OBJ        9.000000000000e-01
    MARK      'MARKER'                 'INTEND'
    MARK      'MARKER'                 'INTORG'
    X0000003  C0000001   1.000000000000e+00
    X0000003  C0000003   1.000000000000e+00
    X0000003  C0000014   1.001000000000e+03
    X0000003  OBJ        8.000000000000e-01
    MARK      'MARKER'                 'INTEND'
    MARK      'MARKER'                 'INTORG'
    X0000004  C0000000   1.000000000000e+00
    X0000004  C0000004   1.000000000000e+00
    X0000004  C0000015   1.000000000000e+00
    X0000004  OBJ        7.380846344317e-02
    MARK      'MARKER'                 'INTEND'
    MARK      'MARKER'                 'INTORG'
    X0000005  C0000001   1.000000000000e+00
    X0000005  C0000004   1.000000000000e+00
    X0000005  C0000015   1.000000000000e+00
    X0000005  OBJ        6.560752306060e-02
    MARK      'MARKER'                 'INTEND'
    MARK      'MARKER'                 'INTORG'
    X0000006  C0000000   1.000000000000e+00
    X0000006  C0000005   1.000000000000e+00
    X0000006  C0000015   1.001000000000e+03
    X0000006  OBJ        9.000000000000e-01
    MARK      'MARKER'                 'INTEND'
    MARK      'MARKER'                 'INTORG'
    X0000007  C0000001   1.000000000000e+00
    X0000007  C0000005   1.000000000000e+00
    X0000007  C0000015   1.001000000000e+03
    X0000007  OBJ        8.000000000000e-01
    MARK      'MARKER'                 'INTEND'
    MARK      'MARKER'                 'INTORG'
    X0000008  C0000000   1.000000000000e+00
    X0000008  C0000006   1.000000000000e+00
    X0000008  C0000016   1.000000000000e+00
    X0000008  OBJ        3.760583439257e-01
    MARK      'MARKER'                 'INTEND'
    MARK      'MARKER'                 'INTORG'
    X0000009  C0000001   1.000000000000e+00
    X0000009  C0000006   1.000000000000e+00
    X0000009  C0000016   1.000000000000e+00
    X0000009  OBJ        3.342740834895e-01
    MARK      'MARKER'                 'INTEND'
    MARK      'MARKER'                 'INTORG'
    X0000010  C0000000   1.000000000000e+00
    X0000010  C0000007   1.000000000000e+00
    X0000010  C0000016   1.001000000000e+03
    X0000010  OBJ        9.000000000000e-01
    MARK      'MARKER'                 'INTEND'
    MARK      'MARKER'                 'INTORG'
    X0000011  C0000001   1.000000000000e+00
    X0000011  C0000007   1.000000000000e+00
    X0000011  C0000016   1.001000000000e+03
    X0000011  OBJ        8.000000000000e-01
    MARK      'MARKER'                 'INTEND'
    MARK      'MARKER'                 'INTORG'
    X0000012  C0000000   1.000000000000e+00
    X0000012  C0000008   1.000000000000e+00
    X0000012  C0000017   1.000000000000e+00
    X0000012  OBJ        2.379506416390e-01
    MARK      'MARKER'                 'INTEND'
    MARK      'MARKER'                 'INTORG'
    X0000013  C0000001   1.000000000000e+00
    X0000013  C0000008   1.000000000000e+00
    X0000013  C0000017   1.000000000000e+00
    X0000013  OBJ        2.115116814569e-01
    MARK      'MARKER'                 'INTEND'
    MARK      'MARKER'                 'INTORG'
    X0000014  C0000000   1.000000000000e+00
    X0000014  C0000009   1.000000000000e+00
    X0000014  C0000017   1.001000000000e+03
    X0000014  OBJ        9.000000000000e-01
    MARK      'MARKER'                 'INTEND'
    MARK      'MARKER'                 'INTORG'
    X0000015  C0000001   1.000000000000e+00
    X0000015  C0000009   1.000000000000e+00
    X0000015  C0000017   1.001000000000e+03
    X0000015  OBJ        8.000000000000e-01
    MARK      'MARKER'                 'INTEND'
    MARK      'MARKER'                 'INTORG'
    X0000016  C0000000   1.000000000000e+00
    X0000016  C0000010   1.000000000000e+00
    X0000016  C0000018   1.000000000000e+00
    X0000016  OBJ        7.621432516554e-02
    MARK      'MARKER'                 'INTEND'
    MARK      'MARKER'                 'INTORG'
    X0000017  C0000001   1.000000000000e+00
    X0000017  C0000010   1.000000000000e+00
    X0000017  C0000018   1.000000000000e+00
    X0000017  OBJ        6.774606681381e-02
    MARK      'MARKER'                 'INTEND'
    MARK      'MARKER'                 'INTORG'
    X0000018  C0000000   1.000000000000e+00
    X0000018  C0000011   1.000000000000e+00
    X0000018  C0000018   1.001000000000e+03
    X0000018  OBJ        9.000000000000e-01
    MARK      'MARKER'                 'INTEND'
    MARK      'MARKER'                 'INTORG'
    X0000019  C0000001   1.000000000000e+00
    X0000019  C0000011   1.000000000000e+00
    X0000019  C0000018   1.001000000000e+03
    X0000019  OBJ        8.000000000000e-01
    MARK      'MARKER'                 'INTEND'
    MARK      'MARKER'                 'INTORG'
    X0000020  C0000000   1.000000000000e+00
    X0000020  C0000012   1.000000000000e+00
    X0000020  C0000019   1.000000000000e+00
    X0000020  OBJ        6.268150931428e-02
    MARK      'MARKER'                 'INTEND'
    MARK      'MARKER'                 'INTORG'
    X0000021  C0000001   1.000000000000e+00
    X0000021  C0000012   1.000000000000e+00
    X0000021  C0000019   1.000000000000e+00
    X0000021  OBJ        5.571689716824e-02
    MARK      'MARKER'                 'INTEND'
    MARK      'MARKER'                 'INTORG'
    X0000022  C0000000   1.000000000000e+00
    X0000022  C0000013   1.000000000000e+00
    X0000022  C0000019   1.001000000000e+03
    X0000022  OBJ        9.000000000000e-01
    MARK      'MARKER'                 'INTEND'
    MARK      'MARKER'                 'INTORG'
    X0000023  C0000001   1.000000000000e+00
    X0000023  C0000013   1.000000000000e+00
    X0000023  C0000019   1.001000000000e+03
    X0000023  OBJ        8.000000000000e-01
    MARK      'MARKER'                 'INTEND'
RHS
    RHS       C0000000   1.000000000000e+00
    RHS       C0000001   1.000000000000e+00
    RHS       C0000002   2.000000000000e+00
    RHS       C0000003   0.000000000000e+00
    RHS       C0000004   2.000000000000e+00
    RHS       C0000005   0.000000000000e+00
    RHS       C0000006   2.000000000000e+00
    RHS       C0000007   0.000000000000e+00
    RHS       C0000008   2.000000000000e+00
    RHS       C0000009   0.000000000000e+00
    RHS       C0000010   2.000000000000e+00
    RHS       C0000011   0.000000000000e+00
    RHS       C0000012   2.000000000000e+00
    RHS       C0000013   0.000000000000e+00
    RHS       C0000014   1.001000000000e+03
    RHS       C0000015   1.001000000000e+03
    RHS       C0000016   1.001000000000e+03
    RHS       C0000017   1.001000000000e+03
    RHS       C0000018   1.001000000000e+03
    RHS       C0000019   1.001000000000e+03
BOUNDS
 UP BND       X0000000   2.000000000000e+00
 UP BND       X0000001   2.000000000000e+00
 UP BND       X0000002   2.000000000000e+00
 UP BND       X0000003   2.000000000000e+00
 UP BND       X0000004   2.000000000000e+00
 UP BND       X0000005   2.000000000000e+00
 UP BND       X0000006   2.000000000000e+00
 UP BND       X0000007   2.000000000000e+00
 UP BND       X0000008   2.000000000000e+00
 UP BND       X0000009   2.000000000000e+00
 UP BND       X0000010   2.000000000000e+00
 UP BND       X0000011   2.000000000000e+00
 UP BND       X0000012   2.000000000000e+00
 UP BND       X0000013   2.000000000000e+00
 UP BND       X0000014   2.000000000000e+00
 UP BND       X0000015   2.000000000000e+00
 UP BND       X0000016   2.000000000000e+00
 UP BND       X0000017   2.000000000000e+00
 UP BND       X0000018   2.000000000000e+00
 UP BND       X0000019   2.000000000000e+00
 UP BND       X0000020   2.000000000000e+00
 UP BND       X0000021   2.000000000000e+00
 UP BND       X0000022   2.000000000000e+00
 UP BND       X0000023   2.000000000000e+00
ENDATA
